(set-logic QF_BV)
(declare-fun x0 () Bool)
(declare-fun x1 () (_ BitVec 32))
(declare-fun x2 () Bool)
(declare-fun x3 () Bool)
(declare-fun x4 () Bool)
(declare-fun x5 () Bool)
(declare-fun x6 () (_ BitVec 8))
(assert (let ( (?v_225 ((_ zero_extend 24) x6))) (let ( (?v_0 (bvsub x1 (_ bv1582311 32)))) (and true x5 true x0 true (bvult (bvadd ?v_225 ?v_0) ?v_0) true x2 true x3 true x4 true))))
(check-sat)
(exit)
